z3_origin/ProveIneq_ISSAC05_SignPattern_1p_4m_1w_3p_p.txt
unsat
(:max-memory                   18.62
 :memory                       18.42
 :nlsat-arith-var              4
 :nlsat-atoms                  21
 :nlsat-bool-var               7
 :nlsat-clauses                13
 :nlsat-conflicts              7
 :nlsat-irrational-assignments 1
 :nlsat-propagations           36
 :nlsat-stages                 7
 :num-allocs                   82449
 :rlimit-count                 17827
 :time                         0.01
 :total-time                   0.02)
